92 72 71 38 37 54 
47 12 53 68 
82 64 90 4 60 
69 98 84 20 24 25 
63 67 57 56 93 
95 23 19 49 89 48 
62 76 85 50 91 
28 29 31 32 80 
83 21 87 10 13 
59 18 22 74 58 
15 11 9 66 70 
45 2 61 41 43 35 
42 7 6 8 3 55 
65 14 16 86 97 77 
39 36 44 81 1 100 
5 73 78 46 
33 27 30 34 26 
52 75 17 
88 99 96 
51 94 
79 
40 

